db/data/1434764901870523339965321938307289603.z3.out
solvers/z3/run.sh: line 2: 430942 Killed                  z3 -smt2 $1
-------------------
104.018825939
